
Gurobi 9.5.1 (mac64[x86]) logging started Sat Jun 11 18:37:44 2022

Set parameter LogFile to value "/Users/keyvanmajd/Documents/GitHub/NNRepLayer_v2/demos/walking_example/flow_constraint/repair_net/logs/opt_log_6_11_2022_18_36_55.log"
Gurobi Optimizer version 9.5.1 build v9.5.1rc2 (mac64[x86])
Thread count: 4 physical cores, 8 logical processors, using up to 8 threads
Optimize a model with 21462 rows, 13132 columns and 60086 nonzeros
Model fingerprint: 0x7ff97486
Model has 76 quadratic objective terms
Variable types: 5932 continuous, 7200 integer (7200 binary)
Coefficient statistics:
  Matrix range     [6e-03, 5e+01]
  Objective range  [5e-01, 2e+00]
  QObjective range [3e-01, 2e+00]
  Bounds range     [5e-02, 5e+01]
  RHS range        [2e-04, 5e+01]
Presolve removed 20115 rows and 12017 columns
Presolve time: 0.04s

Explored 0 nodes (0 simplex iterations) in 0.06 seconds (0.05 work units)
Thread count was 1 (of 8 available processors)

Solution count 0

Model is infeasible
Best objective -, best bound -, gap -
